NAME: set1_case1_6_25
COMMENT: 290
VEHICLE: 10
TIME: 600
DIMENSION: 20
CAPACITY: 10
DELIVERY_SECTION
0 0 0
1 1 2.5
2 1 2.5
3 2 2.5
4 2 2.5
5 3 2.5
6 3 2.5
7 4 2.5
8 4 2.5
9 5 2.5
10 5 2.5
11 6 2.5
12 6 2.5
13 7 2.5
14 7 2.5
15 8 2.5
16 8 2.5
17 9 2.5
18 9 2.5
19 10 2.5
20 10 2.5
21 11 2.5
22 11 2.5
23 12 2.5
24 12 2.5
25 13 2.5
26 13 2.5
27 14 2.5
28 14 2.5
29 15 2.5
30 15 2.5
31 16 2.5
32 16 2.5
33 17 2.5
34 17 2.5
35 18 2.5
36 18 2.5
37 19 2.5
38 19 2.5
PICKUP_SECTION
0 0 0
1 1 1
2 2 1
3 3 1
4 4 1
5 5 1
6 6 1
7 7 1
8 8 1
9 9 1
10 10 1
11 11 1
12 12 1
13 13 1
14 14 1
15 15 1
16 16 1
17 17 1
18 18 1
19 19 1
NODE_SECTION
DISTANCE_SECTION
10 10 10 10 10 10 10 10 10 10 10 10 10 10 10 10 10 10 10 
10 10 10 10 10 10 10 10 10 10 10 10 10 10 10 10 10 10 
10 10 10 10 10 10 10 10 10 10 10 10 10 10 10 10 10 
10 10 10 10 10 10 10 10 10 10 10 10 10 10 10 10 
10 10 10 10 10 10 10 10 10 10 10 10 10 10 10 
10 10 10 10 10 10 10 10 10 10 10 10 10 10 
10 10 10 10 10 10 10 10 10 10 10 10 10 
10 10 10 10 10 10 10 10 10 10 10 10 
10 10 10 10 10 10 10 10 10 10 10 
10 10 10 10 10 10 10 10 10 10 
10 10 10 10 10 10 10 10 10 
10 10 10 10 10 10 10 10 
10 10 10 10 10 10 10 
10 10 10 10 10 10 
10 10 10 10 10 
10 10 10 10 
10 10 10 
10 10 
10 
DEPOT_SECTION
0
EOF